objective value:                                  210
lambda[0,63]*                                       1 	(obj:35)
lambda[1,54]*                                       1 	(obj:0)
lambda[0,65]*                                       1 	(obj:35)
lambda[0,70]*                                       1 	(obj:0)
lambda[1,59]*                                       1 	(obj:0)
lambda[1,60]*                                       3 	(obj:0)
lambda[1,63]*                                       1 	(obj:0)
lambda[0,86]*                                       2 	(obj:0)
lambda[1,65]*                                       1 	(obj:0)
lambda[0,87]*                                       1 	(obj:0)
lambda[0,89]*                                       1 	(obj:35)
lambda[0,91]*                                       1 	(obj:35)
lambda[1,67]*                                       2 	(obj:0)
lambda[0,94]*                                       2 	(obj:35)
lambda[1,69]*                                       1 	(obj:0)
